p edge 1259 1199
e 1 2
e 1 3
e 1 4
e 1 5
e 1 6
e 1 7
e 1 8
e 1 9
e 1 10
e 1 11
e 1 12
e 1 13
e 1 14
e 1 15
e 1 16
e 1 17
e 1 18
e 1 19
e 1 20
e 1 21
e 22 23
e 22 24
e 22 25
e 22 26
e 22 27
e 22 28
e 22 29
e 22 30
e 22 31
e 22 32
e 22 33
e 22 34
e 35 36
e 35 37
e 35 38
e 35 39
e 35 40
e 35 41
e 35 42
e 35 43
e 35 44
e 35 45
e 35 46
e 35 47
e 48 49
e 48 50
e 48 51
e 48 52
e 48 53
e 48 54
e 48 55
e 48 56
e 48 57
e 48 58
e 48 59
e 48 60
e 48 61
e 48 62
e 48 63
e 48 64
e 48 65
e 48 66
e 48 67
e 48 68
e 48 69
e 48 70
e 48 71
e 48 72
e 48 73
e 74 75
e 74 76
e 74 77
e 74 78
e 74 79
e 74 80
e 74 81
e 74 82
e 74 83
e 74 84
e 85 86
e 85 87
e 85 88
e 85 89
e 85 90
e 85 91
e 85 92
e 85 93
e 85 94
e 85 95
e 85 96
e 85 97
e 85 98
e 85 99
e 85 100
e 85 101
e 102 103
e 102 104
e 102 105
e 102 106
e 102 107
e 102 108
e 102 109
e 102 110
e 102 111
e 102 112
e 102 113
e 102 114
e 102 115
e 116 117
e 116 118
e 116 119
e 116 120
e 116 121
e 116 122
e 116 123
e 116 124
e 116 125
e 116 126
e 116 127
e 116 128
e 116 129
e 116 130
e 116 131
e 116 132
e 133 134
e 133 135
e 133 136
e 133 137
e 133 138
e 133 139
e 133 140
e 133 141
e 133 142
e 133 143
e 133 144
e 133 145
e 133 146
e 133 147
e 133 148
e 149 150
e 149 151
e 149 152
e 149 153
e 149 154
e 149 155
e 149 156
e 149 157
e 149 158
e 149 159
e 149 160
e 149 161
e 149 162
e 149 163
e 149 164
e 149 165
e 149 166
e 149 167
e 149 168
e 149 169
e 149 170
e 149 171
e 149 172
e 149 173
e 174 175
e 174 176
e 174 177
e 174 178
e 174 179
e 174 180
e 174 181
e 174 182
e 174 183
e 174 184
e 174 185
e 174 186
e 174 187
e 174 188
e 174 189
e 174 190
e 174 191
e 174 192
e 174 193
e 174 194
e 195 196
e 195 197
e 195 198
e 195 199
e 195 200
e 195 201
e 195 202
e 195 203
e 195 204
e 195 205
e 195 206
e 195 207
e 195 208
e 195 209
e 195 210
e 195 211
e 195 212
e 195 213
e 195 214
e 195 215
e 195 216
e 195 217
e 195 218
e 195 219
e 195 220
e 195 221
e 195 222
e 223 224
e 223 225
e 223 226
e 223 227
e 223 228
e 223 229
e 223 230
e 223 231
e 223 232
e 223 233
e 223 234
e 223 235
e 223 236
e 223 237
e 223 238
e 223 239
e 223 240
e 223 241
e 242 243
e 242 244
e 242 245
e 242 246
e 242 247
e 242 248
e 242 249
e 242 250
e 242 251
e 242 252
e 242 253
e 242 254
e 242 255
e 242 256
e 242 257
e 242 258
e 242 259
e 242 260
e 242 261
e 242 262
e 242 263
e 242 264
e 242 265
e 242 266
e 242 267
e 242 268
e 242 269
e 242 270
e 242 271
e 272 273
e 272 274
e 272 275
e 272 276
e 272 277
e 272 278
e 272 279
e 272 280
e 272 281
e 272 282
e 272 283
e 272 284
e 272 285
e 272 286
e 272 287
e 288 289
e 288 290
e 288 291
e 288 292
e 288 293
e 288 294
e 288 295
e 288 296
e 288 297
e 288 298
e 288 299
e 288 300
e 288 301
e 302 303
e 302 304
e 302 305
e 302 306
e 302 307
e 302 308
e 302 309
e 302 310
e 302 311
e 302 312
e 302 313
e 302 314
e 302 315
e 302 316
e 302 317
e 302 318
e 302 319
e 302 320
e 302 321
e 302 322
e 302 323
e 302 324
e 302 325
e 302 326
e 302 327
e 302 328
e 302 329
e 330 331
e 330 332
e 330 333
e 330 334
e 330 335
e 330 336
e 330 337
e 330 338
e 330 339
e 330 340
e 330 341
e 330 342
e 330 343
e 330 344
e 330 345
e 330 346
e 330 347
e 330 348
e 330 349
e 330 350
e 330 351
e 330 352
e 330 353
e 330 354
e 330 355
e 330 356
e 330 357
e 358 359
e 358 360
e 358 361
e 358 362
e 358 363
e 358 364
e 358 365
e 358 366
e 358 367
e 358 368
e 358 369
e 358 370
e 358 371
e 358 372
e 358 373
e 358 374
e 358 375
e 358 376
e 358 377
e 358 378
e 358 379
e 358 380
e 358 381
e 358 382
e 358 383
e 358 384
e 358 385
e 358 386
e 358 387
e 388 389
e 388 390
e 388 391
e 388 392
e 388 393
e 388 394
e 388 395
e 388 396
e 388 397
e 388 398
e 388 399
e 400 401
e 400 402
e 400 403
e 400 404
e 400 405
e 400 406
e 400 407
e 400 408
e 400 409
e 400 410
e 400 411
e 400 412
e 400 413
e 400 414
e 400 415
e 400 416
e 400 417
e 400 418
e 400 419
e 400 420
e 421 422
e 421 423
e 421 424
e 421 425
e 421 426
e 421 427
e 421 428
e 421 429
e 421 430
e 421 431
e 421 432
e 421 433
e 421 434
e 421 435
e 421 436
e 421 437
e 421 438
e 421 439
e 421 440
e 421 441
e 421 442
e 421 443
e 421 444
e 421 445
e 421 446
e 421 447
e 448 449
e 448 450
e 448 451
e 448 452
e 448 453
e 448 454
e 448 455
e 448 456
e 448 457
e 448 458
e 448 459
e 448 460
e 448 461
e 448 462
e 448 463
e 448 464
e 448 465
e 448 466
e 448 467
e 448 468
e 448 469
e 448 470
e 448 471
e 448 472
e 448 473
e 448 474
e 448 475
e 448 476
e 477 478
e 477 479
e 477 480
e 477 481
e 477 482
e 477 483
e 477 484
e 477 485
e 477 486
e 477 487
e 477 488
e 477 489
e 477 490
e 477 491
e 477 492
e 477 493
e 477 494
e 477 495
e 477 496
e 477 497
e 477 498
e 477 499
e 477 500
e 501 502
e 501 503
e 501 504
e 501 505
e 501 506
e 501 507
e 501 508
e 501 509
e 501 510
e 501 511
e 501 512
e 501 513
e 501 514
e 501 515
e 501 516
e 501 517
e 501 518
e 501 519
e 501 520
e 501 521
e 501 522
e 523 524
e 523 525
e 523 526
e 523 527
e 523 528
e 523 529
e 523 530
e 523 531
e 523 532
e 523 533
e 523 534
e 523 535
e 523 536
e 523 537
e 523 538
e 523 539
e 523 540
e 523 541
e 523 542
e 523 543
e 523 544
e 523 545
e 523 546
e 523 547
e 523 548
e 523 549
e 523 550
e 523 551
e 552 553
e 552 554
e 552 555
e 552 556
e 552 557
e 552 558
e 552 559
e 552 560
e 552 561
e 552 562
e 552 563
e 552 564
e 552 565
e 552 566
e 552 567
e 552 568
e 552 569
e 552 570
e 552 571
e 552 572
e 552 573
e 574 575
e 574 576
e 574 577
e 574 578
e 574 579
e 574 580
e 574 581
e 574 582
e 574 583
e 574 584
e 574 585
e 574 586
e 574 587
e 574 588
e 574 589
e 574 590
e 574 591
e 574 592
e 574 593
e 574 594
e 574 595
e 574 596
e 574 597
e 598 599
e 598 600
e 598 601
e 598 602
e 598 603
e 598 604
e 598 605
e 598 606
e 598 607
e 598 608
e 598 609
e 598 610
e 598 611
e 598 612
e 598 613
e 598 614
e 598 615
e 598 616
e 598 617
e 598 618
e 598 619
e 598 620
e 598 621
e 598 622
e 598 623
e 598 624
e 598 625
e 598 626
e 598 627
e 628 629
e 628 630
e 628 631
e 628 632
e 628 633
e 628 634
e 628 635
e 628 636
e 628 637
e 628 638
e 628 639
e 628 640
e 628 641
e 628 642
e 628 643
e 628 644
e 628 645
e 628 646
e 647 648
e 647 649
e 647 650
e 647 651
e 647 652
e 647 653
e 647 654
e 647 655
e 647 656
e 647 657
e 658 659
e 658 660
e 658 661
e 658 662
e 658 663
e 658 664
e 658 665
e 658 666
e 658 667
e 658 668
e 658 669
e 658 670
e 658 671
e 658 672
e 658 673
e 674 675
e 674 676
e 674 677
e 674 678
e 674 679
e 674 680
e 674 681
e 674 682
e 674 683
e 674 684
e 674 685
e 674 686
e 674 687
e 674 688
e 674 689
e 674 690
e 674 691
e 674 692
e 674 693
e 674 694
e 674 695
e 674 696
e 674 697
e 698 699
e 698 700
e 698 701
e 698 702
e 698 703
e 698 704
e 698 705
e 698 706
e 698 707
e 698 708
e 709 710
e 709 711
e 709 712
e 709 713
e 709 714
e 709 715
e 709 716
e 709 717
e 709 718
e 709 719
e 709 720
e 709 721
e 709 722
e 709 723
e 709 724
e 709 725
e 709 726
e 709 727
e 709 728
e 709 729
e 709 730
e 709 731
e 709 732
e 709 733
e 709 734
e 735 736
e 735 737
e 735 738
e 735 739
e 735 740
e 735 741
e 735 742
e 735 743
e 735 744
e 735 745
e 735 746
e 735 747
e 735 748
e 735 749
e 735 750
e 735 751
e 735 752
e 735 753
e 735 754
e 735 755
e 735 756
e 757 758
e 757 759
e 757 760
e 757 761
e 757 762
e 757 763
e 757 764
e 757 765
e 757 766
e 757 767
e 757 768
e 757 769
e 757 770
e 757 771
e 757 772
e 757 773
e 757 774
e 757 775
e 757 776
e 757 777
e 757 778
e 757 779
e 757 780
e 757 781
e 757 782
e 757 783
e 757 784
e 757 785
e 757 786
e 757 787
e 788 789
e 788 790
e 788 791
e 788 792
e 788 793
e 788 794
e 788 795
e 788 796
e 788 797
e 788 798
e 788 799
e 788 800
e 788 801
e 788 802
e 788 803
e 788 804
e 788 805
e 788 806
e 788 807
e 788 808
e 788 809
e 788 810
e 788 811
e 788 812
e 788 813
e 788 814
e 788 815
e 788 816
e 788 817
e 788 818
e 819 820
e 819 821
e 819 822
e 819 823
e 819 824
e 819 825
e 819 826
e 819 827
e 819 828
e 819 829
e 819 830
e 819 831
e 819 832
e 819 833
e 819 834
e 819 835
e 819 836
e 819 837
e 819 838
e 819 839
e 819 840
e 819 841
e 819 842
e 819 843
e 819 844
e 819 845
e 819 846
e 847 848
e 847 849
e 847 850
e 847 851
e 847 852
e 847 853
e 847 854
e 847 855
e 847 856
e 847 857
e 847 858
e 847 859
e 847 860
e 847 861
e 847 862
e 847 863
e 847 864
e 847 865
e 847 866
e 847 867
e 847 868
e 847 869
e 847 870
e 847 871
e 847 872
e 847 873
e 874 875
e 874 876
e 874 877
e 874 878
e 874 879
e 874 880
e 874 881
e 874 882
e 874 883
e 874 884
e 874 885
e 874 886
e 874 887
e 874 888
e 874 889
e 874 890
e 874 891
e 874 892
e 874 893
e 874 894
e 874 895
e 874 896
e 874 897
e 898 899
e 898 900
e 898 901
e 898 902
e 898 903
e 898 904
e 898 905
e 898 906
e 898 907
e 898 908
e 898 909
e 898 910
e 898 911
e 898 912
e 898 913
e 914 915
e 914 916
e 914 917
e 914 918
e 914 919
e 914 920
e 914 921
e 914 922
e 914 923
e 914 924
e 914 925
e 914 926
e 914 927
e 914 928
e 914 929
e 930 931
e 930 932
e 930 933
e 930 934
e 930 935
e 930 936
e 930 937
e 930 938
e 930 939
e 930 940
e 930 941
e 930 942
e 930 943
e 930 944
e 930 945
e 930 946
e 930 947
e 930 948
e 930 949
e 930 950
e 930 951
e 930 952
e 930 953
e 930 954
e 930 955
e 930 956
e 957 958
e 957 959
e 957 960
e 957 961
e 957 962
e 957 963
e 957 964
e 957 965
e 957 966
e 957 967
e 957 968
e 957 969
e 957 970
e 957 971
e 957 972
e 957 973
e 957 974
e 957 975
e 957 976
e 957 977
e 957 978
e 957 979
e 957 980
e 957 981
e 957 982
e 957 983
e 957 984
e 957 985
e 986 987
e 986 988
e 986 989
e 986 990
e 986 991
e 986 992
e 986 993
e 986 994
e 986 995
e 986 996
e 986 997
e 986 998
e 986 999
e 986 1000
e 986 1001
e 986 1002
e 986 1003
e 986 1004
e 986 1005
e 986 1006
e 1007 1008
e 1007 1009
e 1007 1010
e 1007 1011
e 1007 1012
e 1007 1013
e 1007 1014
e 1007 1015
e 1007 1016
e 1007 1017
e 1007 1018
e 1007 1019
e 1007 1020
e 1007 1021
e 1007 1022
e 1007 1023
e 1007 1024
e 1007 1025
e 1007 1026
e 1007 1027
e 1007 1028
e 1007 1029
e 1007 1030
e 1007 1031
e 1032 1033
e 1032 1034
e 1032 1035
e 1032 1036
e 1032 1037
e 1032 1038
e 1032 1039
e 1032 1040
e 1032 1041
e 1032 1042
e 1032 1043
e 1032 1044
e 1032 1045
e 1032 1046
e 1032 1047
e 1032 1048
e 1049 1050
e 1049 1051
e 1049 1052
e 1049 1053
e 1049 1054
e 1049 1055
e 1049 1056
e 1049 1057
e 1049 1058
e 1049 1059
e 1049 1060
e 1049 1061
e 1049 1062
e 1063 1064
e 1063 1065
e 1063 1066
e 1063 1067
e 1063 1068
e 1063 1069
e 1063 1070
e 1063 1071
e 1063 1072
e 1063 1073
e 1063 1074
e 1063 1075
e 1063 1076
e 1063 1077
e 1063 1078
e 1063 1079
e 1063 1080
e 1081 1082
e 1081 1083
e 1081 1084
e 1081 1085
e 1081 1086
e 1081 1087
e 1081 1088
e 1081 1089
e 1081 1090
e 1081 1091
e 1081 1092
e 1081 1093
e 1081 1094
e 1081 1095
e 1081 1096
e 1081 1097
e 1081 1098
e 1081 1099
e 1081 1100
e 1081 1101
e 1081 1102
e 1081 1103
e 1081 1104
e 1105 1106
e 1105 1107
e 1105 1108
e 1105 1109
e 1105 1110
e 1105 1111
e 1105 1112
e 1105 1113
e 1105 1114
e 1105 1115
e 1105 1116
e 1117 1118
e 1117 1119
e 1117 1120
e 1117 1121
e 1117 1122
e 1117 1123
e 1117 1124
e 1117 1125
e 1117 1126
e 1117 1127
e 1117 1128
e 1129 1130
e 1129 1131
e 1129 1132
e 1129 1133
e 1129 1134
e 1129 1135
e 1129 1136
e 1129 1137
e 1129 1138
e 1129 1139
e 1140 1141
e 1140 1142
e 1140 1143
e 1140 1144
e 1140 1145
e 1140 1146
e 1140 1147
e 1140 1148
e 1140 1149
e 1140 1150
e 1140 1151
e 1140 1152
e 1140 1153
e 1140 1154
e 1140 1155
e 1140 1156
e 1140 1157
e 1140 1158
e 1159 1160
e 1159 1161
e 1159 1162
e 1159 1163
e 1159 1164
e 1159 1165
e 1159 1166
e 1159 1167
e 1159 1168
e 1159 1169
e 1159 1170
e 1159 1171
e 1159 1172
e 1159 1173
e 1159 1174
e 1159 1175
e 1159 1176
e 1159 1177
e 1159 1178
e 1159 1179
e 1159 1180
e 1181 1182
e 1181 1183
e 1181 1184
e 1181 1185
e 1181 1186
e 1181 1187
e 1181 1188
e 1181 1189
e 1181 1190
e 1181 1191
e 1181 1192
e 1181 1193
e 1181 1194
e 1181 1195
e 1181 1196
e 1181 1197
e 1198 1199
e 1198 1200
e 1198 1201
e 1198 1202
e 1198 1203
e 1198 1204
e 1198 1205
e 1198 1206
e 1198 1207
e 1198 1208
e 1198 1209
e 1198 1210
e 1198 1211
e 1198 1212
e 1198 1213
e 1198 1214
e 1198 1215
e 1216 1217
e 1216 1218
e 1216 1219
e 1216 1220
e 1216 1221
e 1216 1222
e 1216 1223
e 1216 1224
e 1216 1225
e 1216 1226
e 1216 1227
e 1216 1228
e 1216 1229
e 1216 1230
e 1216 1231
e 1216 1232
e 1216 1233
e 1216 1234
e 1216 1235
e 1216 1236
e 1216 1237
e 1216 1238
e 1216 1239
e 1216 1240
e 1216 1241
e 1216 1242
e 1216 1243
e 1216 1244
e 1216 1245
e 1246 1247
e 1246 1248
e 1246 1249
e 1246 1250
e 1246 1251
e 1246 1252
e 1246 1253
e 1246 1254
e 1246 1255
e 1246 1256
e 1246 1257
e 1246 1258
e 1246 1259
